(declare-const |K:70| Int)
(declare-const |j':54:63| Int)
(declare-const |K:60:61| Int)
(declare-const |i':64| Int)
(declare-const |k':53| Int)
(declare-const |k':53:62| Int)
(declare-const |havoc:0| Int)
(assert (and (or (not (and (<= (- |K:70|) 0) (<= |K:70| 0)))
                   (= (+ |i':64| (- |K:70|)) 0))
               (or (not (<= (+ (- |K:70|) 1) 0)) (= (+ |i':64| (- |K:70|)) 0))
               (or (not (and (<= (- |K:70|) 0) (<= |K:70| 0)))
                     (= (+ |k':53| (- |K:70|)) 0))
               (or (not (<= (+ (- |K:70|) 1) 0)) (= (+ |k':53| (- |K:70|)) 0))
               (or (and (= |K:70| 0) (= (- |k':53|) 0) (= (- |i':64|) 0))
                     (and (<= (+ (- |K:70|) 1) 0) (<= (+ (- |havoc:0|) 1) 0)
                            (= (+ (- |k':53|) |i':64|) 0)
                            (<= (+ (- |havoc:0|) |k':53|) 0)
                            (<= (+ (- |k':53|) 1) 0))) (<= (- |K:70|) 0)
               (<= (- |k':53|) 0) (<= (- |i':64|) 0)
               (= (+ |k':53| (- |i':64|)) 0) (<= (+ |havoc:0| (- |i':64|)) 0)
               (or (not (<= (- |K:60:61|) 0))
                     (= (+ |k':53:62| |K:60:61| (- |k':53|)) 0))
               (or (not (<= (- |K:60:61|) 0))
                     (= (+ |j':54:63| (- |K:60:61|)) 0))
               (or (and (= |K:60:61| 0) (= (- |j':54:63|) 0)
                          (= (+ (- |k':53:62|) |k':53|) 0))
                     (and (<= (+ (- |K:60:61|) 1) 0)
                            (<= (+ (- |havoc:0|) 1) 0)
                            (<= (+ (- |k':53|) 1) 0)
                            (<= (+ |j':54:63| (- |havoc:0|)) 0)
                            (<= (- |k':53:62|) 0) (<= (+ (- |j':54:63|) 1) 0)))
               (<= (- |K:60:61|) 0) (<= (- |j':54:63|) 0)
               (<= (- |k':53:62|) 0) (< (+ |j':54:63| (- |havoc:0|)) 0)
               (not (< (- |k':53:62|) 0))))
(check-sat)
